(declare-fun pow2 (Int) Int)
(declare-fun k () Int)
(declare-fun s () Int)
(declare-fun t () Int)
(declare-const x179__fresh Bool)
(declare-const x220__fresh Bool)
(assert (>= k 1))
(assert (>= s (- (pow2 k) 1)))
(assert (>= t 0))
(assert (<= t (- (pow2 k) 1)))
(assert (or (and (= (pow2 0) 1) (forall ((i Int)) x179__fresh)) (and (and (= (pow2 0) 1) (= 2 (pow2 1)) (= 4 (pow2 0)) (= (pow2 3) 8)) x220__fresh (forall ((i Int) (j Int)) (or (and (<= i 0) (> j 0)) (or (not (< i j)) (distinct (pow2 i) (pow2 j))))) (forall ((i Int) (j Int) (x Int)) (=> (and (>= j 0) (<= x 0) (distinct (mod (+ x (pow2 i)) (pow2 j)) 0)) (< i j))) (forall ((k Int) (x Int)) (or (not (>= x 0)) (distinct (- (pow2 k) 1) (* 2 x)))) (forall ((k Int)) (not (>= k 0))))))
(check-sat)
